(set-logic QF_NRA_ODE)
(declare-fun F () Real)
(declare-fun F_0_0 () Real)
(declare-fun F_0_t () Real)
(declare-fun M () Real)
(declare-fun M_0_0 () Real)
(declare-fun M_0_t () Real)
(declare-fun K () Real)
(declare-fun K_0_0 () Real)
(declare-fun K_0_t () Real)
(declare-fun b () Real)
(declare-fun b_0_0 () Real)
(declare-fun b_0_t () Real)
(declare-fun kappa () Real)
(declare-fun kappa_0_0 () Real)
(declare-fun kappa_0_t () Real)
(declare-fun t () Real)
(declare-fun t_0_0 () Real)
(declare-fun t_0_t () Real)
(declare-fun time_0 () Real)
(define-ode flow_1 ((= d/dt[b] 0.0)(= d/dt[kappa] 0.0)(= d/dt[t] 1.0)(= d/dt[F] (* F (- (- 0.0 (/ 0.013 (+ 1.0 K))) (* (/ 1.0 7777.8) (+ (/ (+ 772.3 (* kappa 30.4)) (+ F M)) kappa)))))(= d/dt[M] (* (/ (- 0.0 M) 1400.0) (+ (/ (+ 772.3 (* kappa 30.4)) (+ F M)) kappa)))(= d/dt[K] (- (/ (* 0.9 (* 0.013 F)) (+ 1.0 K)) b))))
(assert (>= F_0_0 0.01))
(assert (<= F_0_0 100))
(assert (>= F_0_t 0.01))
(assert (<= F_0_t 100))
(assert (>= M_0_0 0.01))
(assert (<= M_0_0 100))
(assert (>= M_0_t 0.01))
(assert (<= M_0_t 100))
(assert (>= K_0_0 0))
(assert (<= K_0_0 100))
(assert (>= K_0_t 0))
(assert (<= K_0_t 100))
(assert (>= b_0_0 0.05))
(assert (<= b_0_0 0.0575))
(assert (>= b_0_t 0.05))
(assert (<= b_0_t 0.0575))
(assert (>= kappa_0_0 10))
(assert (<= kappa_0_0 10.2109))
(assert (>= kappa_0_t 10))
(assert (<= kappa_0_t 10.2109))
(assert (>= time_0 0))
(assert (<= time_0 6))
(assert (>= t_0_0 0))
(assert (<= t_0_0 6))
(assert (>= t_0_t 0))
(assert (<= t_0_t 6))
(assert 
(and 
(= [F_0_t M_0_t K_0_t b_0_t kappa_0_t t_0_t] (integral 0. time_0 [F_0_0 M_0_0 K_0_0 b_0_0 kappa_0_0 t_0_0] flow_1))
(= b_0_0 b_0_t)
(= kappa_0_0 kappa_0_t)
(= t_0_0 0)
(>= F_0_0 24.9997)
(<= F_0_0 25.0003)
(>= M_0_0 43.5996)
(<= M_0_0 43.6004)
(>= K_0_0 0.0199998)
(<= K_0_0 0.0200002)
(= t_0_t 6)
(>= F_0_t 23.0825)
(<= F_0_t 23.2825)
(>= M_0_t 38.8171)
(<= M_0_t 39.0171)
(>= K_0_t 0.660682)
(<= K_0_t 0.860682)
)
)
(check-sat)
(exit)
